p td 34 102
3 1
4 3
6 3
7 4
8 1
8 7
9 7
10 8
10 3
11 4
11 3
12 7
13 2
13 4
14 10
14 13
14 3
15 4
15 2
16 10
16 7
16 8
16 6
18 12
18 14
18 1
18 8
19 13
19 5
19 9
19 15
19 17
20 9
20 14
21 14
21 2
21 17
22 17
22 10
22 8
22 7
23 11
23 5
23 9
23 22
23 12
24 23
24 17
24 8
24 16
25 6
25 21
25 5
25 22
26 24
26 17
27 9
27 4
27 15
27 19
28 1
28 3
28 16
28 15
29 27
29 7
29 28
29 24
29 17
30 20
30 5
30 2
30 28
30 13
31 16
31 29
31 27
31 14
31 30
32 27
32 12
32 4
32 17
32 26
32 8
33 3
33 6
33 28
33 5
33 8
33 21
33 14
33 27
33 9
34 12
34 7
34 16
34 8
34 13
34 9
34 22
34 11
